(declare-fun e () String)
(declare-fun g () String)
(declare-fun b () String)
(declare-fun d () String)
(declare-fun f () String)
(declare-fun a () String)
(declare-fun h () String)
(assert (= (str.++ "d" a g h d "b") (str.++ b g)))
(assert (= a (str.++ e h "f")))
(assert (= "dccggb" (str.++ "dab" f "f")))

(check-sat)
